\ENCODING=ISO-8859-1
\Problem name: IloCplex

Minimize
 obj1: 1.09571221380523 x1 - 0.0957122138052276 x2 + 1.00444998220007 x3
       - 0.0044499822000712 x4 + 1.47169811320755 x5 - 0.471698113207547 x6
       + 1.09571221380523 x7 - 0.0957122138052276 x8 + 7.55360507965088
Subject To
 c1:  x2 >= 1
 c2:  x4 >= 2
 c3:  x6 >= 3
 c4:  x8 >= 4
 c5:  0.0957122138052276 x1 + 0.904287786194772 x2 - x8 <= -2.52680253982544
 c6:  x1 - x2 >= 2.112
 c7:  x1 - x2 <= 1056
 c8:  x3 - x4 >= 22.472
 c9:  x3 - x4 <= 11236
 c10: x5 - x6 >= 0.212
 c11: x5 - x6 <= 106
 c12: x7 - x8 >= 2.112
 c13: x7 - x8 <= 1056
 c14: - 1024 x3 - 10212 x4 + 11236 x9  = 0
 c15: - 1764 x3 - 9472 x4 + 11236 x10  = 0
 c16: - 2557.7669 x3 - 8678.2331 x4 + 11236 x11  = 0
 c17: - 3072.00046 x3 - 8163.99954 x4 + 11236 x12  = 0
 c18: - 4096 x3 - 7140 x4 + 11236 x13  = 0
 c19: - 5476 x3 - 5760 x4 + 11236 x14  = 0
 c20: - 32 x5 - 74 x6 + 106 x15  = 0
 c21: - 42 x5 - 64 x6 + 106 x16  = 0
 c22: - 50.57437 x5 - 55.42563 x6 + 106 x17  = 0
 c23: - 55.42563 x5 - 50.57437 x6 + 106 x18  = 0
 c24: - 64 x5 - 42 x6 + 106 x19  = 0
 c25: - 74 x5 - 32 x6 + 106 x20  = 0
 c26: 0.0957122138052276 x1 + 0.904287786194772 x2 - x4 + 10000 x21
      <= 9997.47319746017
 c27: 1.09571221380523 x1 - 0.0957122138052276 x2 - x5 + 10000 x22
      <= 9997.47319746017
 c28: 0.0044499822000712 x3 - 0.0044499822000712 x4 + x9 - x20 + 10000 x23
      <= 9998.75
 c29: 0.0044499822000712 x3 + 0.995550017799929 x4 - x8 + 10000 x24 <= 9998.75
 c30: 1.47169811320755 x5 - 0.471698113207547 x6 - x7 + 10000 x25 <= 9998.75
 c31: x21 + x26  = 1
 c32: x22 + x27  = 1
 c33: x23 + x28  = 1
 c34: x24 + x29  = 1
 c35: x25 + x30  = 1
Bounds
 0 <= x1 <= 1000000
 0 <= x2 <= 1000000
 0 <= x3 <= 1000000
 0 <= x4 <= 1000000
 0 <= x5 <= 1000000
 0 <= x6 <= 1000000
 0 <= x7 <= 1000000
 0 <= x8 <= 1000000
 0 <= x9 <= 1000000
 0 <= x10 <= 1000000
 0 <= x11 <= 1000000
 0 <= x12 <= 1000000
 0 <= x13 <= 1000000
 0 <= x14 <= 1000000
 0 <= x15 <= 1000000
 0 <= x16 <= 1000000
 0 <= x17 <= 1000000
 0 <= x18 <= 1000000
 0 <= x19 <= 1000000
 0 <= x20 <= 1000000
 0 <= x21 <= 1
 0 <= x22 <= 1
 0 <= x23 <= 1
 0 <= x24 <= 1
 0 <= x25 <= 1
 0 <= x26 <= 1
 0 <= x27 <= 1
 0 <= x28 <= 1
 0 <= x29 <= 1
 0 <= x30 <= 1
Binaries
 x21  x22  x23  x24  x25  x26  x27  x28  x29  x30 
End
